
Gurobi 9.1.1 (win64, Python) logging started Thu Dec 31 18:26:34 2020

Academic license - for non-commercial use only - expires 2021-03-01
Using license file C:\Users\takala\gurobi.lic
Set parameter LogFile to value gurobi.log
